Generations:
0: ((0, 12, 33, 40, 8, 27, 43, 47, 36, 20, 46, 9, 31, 19, 17, 13, 30, 18, 25, 11, 42, 3, 6, 10, 37, 22, 41, 4, 23, 49, 29, 32, 48, 35, 38, 45, 28, 2, 39, 1, 44, 15, 26, 5, 7, 14, 16, 21, 34, 24), 1233)
1: ((4, 0, 30, 14, 8, 6, 36, 25, 12, 5, 35, 17, 29, 11, 10, 20, 16, 49, 38, 32, 34, 41, 37, 45, 9, 23, 46, 48, 47, 43, 27, 39, 24, 7, 3, 40, 19, 18, 22, 26, 13, 42, 2, 15, 33, 21, 28, 44, 1, 31), 1229)
2: ((4, 0, 30, 14, 8, 6, 36, 25, 12, 5, 35, 17, 29, 11, 10, 20, 16, 49, 38, 32, 34, 41, 37, 45, 9, 23, 46, 48, 47, 43, 27, 39, 24, 7, 3, 40, 19, 18, 22, 26, 13, 42, 2, 15, 33, 21, 28, 44, 1, 31), 1229)
3: ((43, 42, 12, 47, 7, 29, 28, 18, 41, 37, 30, 23, 49, 22, 48, 39, 27, 2, 31, 40, 15, 35, 34, 44, 17, 1, 32, 13, 46, 19, 45, 4, 24, 10, 0, 21, 14, 5, 25, 26, 6, 9, 8, 3, 38, 20, 33, 11, 16, 36), 1215)
4: ((10, 16, 30, 41, 37, 45, 23, 9, 4, 47, 38, 20, 46, 17, 48, 8, 25, 6, 14, 18, 49, 34, 32, 39, 35, 44, 43, 27, 24, 7, 3, 40, 19, 2, 22, 26, 13, 28, 36, 5, 21, 0, 31, 1, 15, 12, 42, 33, 29, 11), 1193)
5: ((10, 16, 30, 41, 37, 45, 23, 9, 4, 47, 38, 20, 46, 17, 48, 8, 25, 6, 14, 18, 49, 34, 32, 39, 35, 44, 43, 27, 24, 7, 3, 40, 19, 2, 22, 26, 13, 28, 36, 5, 21, 0, 31, 1, 15, 12, 42, 33, 29, 11), 1193)
6: ((10, 16, 30, 41, 37, 45, 23, 9, 4, 47, 38, 20, 46, 17, 48, 8, 25, 6, 14, 18, 49, 34, 32, 39, 35, 44, 43, 27, 24, 7, 3, 40, 19, 2, 22, 26, 13, 28, 36, 5, 21, 0, 31, 1, 15, 12, 42, 33, 29, 11), 1193)
7: ((10, 16, 30, 41, 37, 45, 23, 9, 4, 47, 38, 20, 46, 17, 48, 8, 25, 6, 14, 18, 49, 34, 32, 39, 35, 44, 43, 27, 24, 7, 3, 40, 19, 2, 22, 26, 13, 28, 36, 5, 21, 0, 31, 1, 15, 12, 42, 33, 29, 11), 1193)
8: ((10, 16, 30, 41, 37, 45, 23, 9, 4, 47, 38, 20, 46, 17, 48, 8, 25, 6, 14, 18, 49, 34, 32, 39, 35, 44, 43, 27, 24, 7, 3, 40, 19, 2, 22, 26, 13, 28, 36, 5, 21, 0, 31, 1, 15, 12, 42, 33, 29, 11), 1193)
9: ((0, 36, 43, 3, 30, 33, 19, 37, 47, 49, 25, 34, 46, 31, 1, 12, 45, 17, 44, 22, 48, 18, 4, 32, 41, 7, 23, 2, 14, 10, 9, 29, 40, 15, 27, 38, 42, 6, 16, 24, 11, 8, 35, 26, 20, 13, 28, 21, 39, 5), 1186)
10: ((10, 13, 38, 9, 33, 41, 23, 42, 39, 28, 17, 15, 19, 44, 46, 11, 30, 21, 32, 29, 1, 40, 22, 14, 45, 20, 16, 4, 26, 34, 49, 5, 8, 37, 47, 43, 0, 2, 27, 48, 3, 24, 25, 31, 18, 12, 35, 6, 36, 7), 1154)
11: ((10, 13, 38, 9, 33, 41, 23, 42, 39, 28, 17, 15, 19, 44, 46, 11, 30, 21, 32, 29, 1, 40, 22, 14, 45, 20, 16, 4, 26, 34, 49, 5, 8, 37, 47, 43, 0, 2, 27, 48, 3, 24, 25, 31, 18, 12, 35, 6, 36, 7), 1154)
12: ((10, 13, 38, 9, 33, 41, 23, 42, 39, 28, 17, 15, 19, 44, 46, 11, 30, 21, 32, 29, 1, 40, 22, 14, 45, 20, 16, 4, 26, 34, 49, 5, 8, 37, 47, 43, 0, 2, 27, 48, 3, 24, 25, 31, 18, 12, 35, 6, 36, 7), 1154)
13: ((10, 13, 38, 9, 33, 41, 23, 42, 39, 28, 17, 15, 19, 44, 46, 11, 30, 21, 32, 29, 1, 40, 22, 14, 45, 20, 16, 4, 26, 34, 49, 5, 8, 37, 47, 43, 0, 2, 27, 48, 3, 24, 25, 31, 18, 12, 35, 6, 36, 7), 1154)
14: ((10, 13, 38, 9, 33, 41, 23, 42, 39, 28, 17, 15, 19, 44, 46, 11, 30, 21, 32, 29, 1, 40, 22, 14, 45, 20, 16, 4, 26, 34, 49, 5, 8, 37, 47, 43, 0, 2, 27, 48, 3, 24, 25, 31, 18, 12, 35, 6, 36, 7), 1154)
15: ((10, 13, 38, 9, 33, 41, 23, 42, 39, 28, 17, 15, 19, 44, 46, 11, 30, 21, 32, 29, 1, 40, 22, 14, 45, 20, 16, 4, 26, 34, 49, 5, 8, 37, 47, 43, 0, 2, 27, 48, 3, 24, 25, 31, 18, 12, 35, 6, 36, 7), 1154)
16: ((10, 13, 38, 9, 33, 41, 23, 42, 39, 28, 17, 15, 19, 44, 46, 11, 30, 21, 32, 29, 1, 40, 22, 14, 45, 20, 16, 4, 26, 34, 49, 5, 8, 37, 47, 43, 0, 2, 27, 48, 3, 24, 25, 31, 18, 12, 35, 6, 36, 7), 1154)
17: ((10, 13, 38, 9, 33, 41, 23, 42, 39, 28, 17, 15, 19, 44, 46, 11, 30, 21, 32, 29, 1, 40, 22, 14, 45, 20, 16, 4, 26, 34, 49, 5, 8, 37, 47, 43, 0, 2, 27, 48, 3, 24, 25, 31, 18, 12, 35, 6, 36, 7), 1154)
18: ((10, 13, 38, 9, 33, 41, 23, 42, 39, 28, 17, 15, 19, 44, 46, 11, 30, 21, 32, 29, 1, 40, 22, 14, 45, 20, 16, 4, 26, 34, 49, 5, 8, 37, 47, 43, 0, 2, 27, 48, 3, 24, 25, 31, 18, 12, 35, 6, 36, 7), 1154)
19: ((10, 13, 38, 9, 33, 41, 23, 42, 39, 28, 17, 15, 19, 44, 46, 11, 30, 21, 32, 29, 1, 40, 22, 14, 45, 20, 16, 4, 26, 34, 49, 5, 8, 37, 47, 43, 0, 2, 27, 48, 3, 24, 25, 31, 18, 12, 35, 6, 36, 7), 1154)
20: ((10, 13, 38, 9, 33, 41, 23, 42, 39, 28, 17, 15, 19, 44, 46, 11, 30, 21, 32, 29, 1, 40, 22, 14, 45, 20, 16, 4, 26, 34, 49, 5, 8, 37, 47, 43, 0, 2, 27, 48, 3, 24, 25, 31, 18, 12, 35, 6, 36, 7), 1154)
21: ((10, 13, 38, 9, 33, 41, 23, 42, 39, 28, 17, 15, 19, 44, 46, 11, 30, 21, 32, 29, 1, 40, 22, 14, 45, 20, 16, 4, 26, 34, 49, 5, 8, 37, 47, 43, 0, 2, 27, 48, 3, 24, 25, 31, 18, 12, 35, 6, 36, 7), 1154)
22: ((10, 13, 38, 9, 33, 41, 23, 42, 39, 28, 17, 15, 19, 44, 46, 11, 30, 21, 32, 29, 1, 40, 22, 14, 45, 20, 16, 4, 26, 34, 49, 5, 8, 37, 47, 43, 0, 2, 27, 48, 3, 24, 25, 31, 18, 12, 35, 6, 36, 7), 1154)
23: ((10, 13, 38, 9, 33, 41, 23, 42, 39, 28, 17, 15, 19, 44, 46, 11, 30, 21, 32, 29, 1, 40, 22, 14, 45, 20, 16, 4, 26, 34, 49, 5, 8, 37, 47, 43, 0, 2, 27, 48, 3, 24, 25, 31, 18, 12, 35, 6, 36, 7), 1154)
24: ((10, 13, 38, 9, 33, 41, 23, 42, 39, 28, 17, 15, 19, 44, 46, 11, 30, 21, 32, 29, 1, 40, 22, 14, 45, 20, 16, 4, 26, 34, 49, 5, 8, 37, 47, 43, 0, 2, 27, 48, 3, 24, 25, 31, 18, 12, 35, 6, 36, 7), 1154)
25: ((10, 13, 38, 9, 33, 41, 23, 42, 39, 28, 17, 15, 19, 44, 46, 11, 30, 21, 32, 29, 1, 40, 22, 14, 45, 20, 16, 4, 26, 34, 49, 5, 8, 37, 47, 43, 0, 2, 27, 48, 3, 24, 25, 31, 18, 12, 35, 6, 36, 7), 1154)
26: ((10, 13, 38, 9, 33, 41, 23, 42, 39, 28, 17, 15, 19, 44, 46, 11, 30, 21, 32, 29, 1, 40, 22, 14, 45, 20, 16, 4, 26, 34, 49, 5, 8, 37, 47, 43, 0, 2, 27, 48, 3, 24, 25, 31, 18, 12, 35, 6, 36, 7), 1154)
27: ((10, 13, 38, 9, 33, 41, 23, 42, 39, 28, 17, 15, 19, 44, 46, 11, 30, 21, 32, 29, 1, 40, 22, 14, 45, 20, 16, 4, 26, 34, 49, 5, 8, 37, 47, 43, 0, 2, 27, 48, 3, 24, 25, 31, 18, 12, 35, 6, 36, 7), 1154)
28: ((10, 13, 38, 9, 33, 41, 23, 42, 39, 28, 17, 15, 19, 44, 46, 11, 30, 21, 32, 29, 1, 40, 22, 14, 45, 20, 16, 4, 26, 34, 49, 5, 8, 37, 47, 43, 0, 2, 27, 48, 3, 24, 25, 31, 18, 12, 35, 6, 36, 7), 1154)
29: ((10, 13, 38, 9, 33, 41, 23, 42, 39, 28, 17, 15, 19, 44, 46, 11, 30, 21, 32, 29, 1, 40, 22, 14, 45, 20, 16, 4, 26, 34, 49, 5, 8, 37, 47, 43, 0, 2, 27, 48, 3, 24, 25, 31, 18, 12, 35, 6, 36, 7), 1154)
30: ((10, 13, 38, 9, 33, 41, 23, 42, 39, 28, 17, 15, 19, 44, 46, 11, 30, 21, 32, 29, 1, 40, 22, 14, 45, 20, 16, 4, 26, 34, 49, 5, 8, 37, 47, 43, 0, 2, 27, 48, 3, 24, 25, 31, 18, 12, 35, 6, 36, 7), 1154)
31: ((10, 13, 38, 9, 33, 41, 23, 42, 39, 28, 17, 15, 19, 44, 46, 11, 30, 21, 32, 29, 1, 40, 22, 14, 45, 20, 16, 4, 26, 34, 49, 5, 8, 37, 47, 43, 0, 2, 27, 48, 3, 24, 25, 31, 18, 12, 35, 6, 36, 7), 1154)
32: ((10, 13, 38, 9, 33, 41, 23, 42, 39, 28, 17, 15, 19, 44, 46, 11, 30, 21, 32, 29, 1, 40, 22, 14, 45, 20, 16, 4, 26, 34, 49, 5, 8, 37, 47, 43, 0, 2, 27, 48, 3, 24, 25, 31, 18, 12, 35, 6, 36, 7), 1154)
33: ((10, 13, 38, 9, 33, 41, 23, 42, 39, 28, 17, 15, 19, 44, 46, 11, 30, 21, 32, 29, 1, 40, 22, 14, 45, 20, 16, 4, 26, 34, 49, 5, 8, 37, 47, 43, 0, 2, 27, 48, 3, 24, 25, 31, 18, 12, 35, 6, 36, 7), 1154)
34: ((10, 13, 38, 9, 33, 41, 23, 42, 39, 28, 17, 15, 19, 44, 46, 11, 30, 21, 32, 29, 1, 40, 22, 14, 45, 20, 16, 4, 26, 34, 49, 5, 8, 37, 47, 43, 0, 2, 27, 48, 3, 24, 25, 31, 18, 12, 35, 6, 36, 7), 1154)
35: ((10, 13, 38, 9, 33, 41, 23, 42, 39, 28, 17, 15, 19, 44, 46, 11, 30, 21, 32, 29, 1, 40, 22, 14, 45, 20, 16, 4, 26, 34, 49, 5, 8, 37, 47, 43, 0, 2, 27, 48, 3, 24, 25, 31, 18, 12, 35, 6, 36, 7), 1154)
36: ((10, 13, 38, 9, 33, 41, 23, 42, 39, 28, 17, 15, 19, 44, 46, 11, 30, 21, 32, 29, 1, 40, 22, 14, 45, 20, 16, 4, 26, 34, 49, 5, 8, 37, 47, 43, 0, 2, 27, 48, 3, 24, 25, 31, 18, 12, 35, 6, 36, 7), 1154)
37: ((10, 13, 38, 9, 33, 41, 23, 42, 39, 28, 17, 15, 19, 44, 46, 11, 30, 21, 32, 29, 1, 40, 22, 14, 45, 20, 16, 4, 26, 34, 49, 5, 8, 37, 47, 43, 0, 2, 27, 48, 3, 24, 25, 31, 18, 12, 35, 6, 36, 7), 1154)
38: ((10, 13, 38, 9, 33, 41, 23, 42, 39, 28, 17, 15, 19, 44, 46, 11, 30, 21, 32, 29, 1, 40, 22, 14, 45, 20, 16, 4, 26, 34, 49, 5, 8, 37, 47, 43, 0, 2, 27, 48, 3, 24, 25, 31, 18, 12, 35, 6, 36, 7), 1154)
39: ((10, 13, 38, 9, 33, 41, 23, 42, 39, 28, 17, 15, 19, 44, 46, 11, 30, 21, 32, 29, 1, 40, 22, 14, 45, 20, 16, 4, 26, 34, 49, 5, 8, 37, 47, 43, 0, 2, 27, 48, 3, 24, 25, 31, 18, 12, 35, 6, 36, 7), 1154)
40: ((10, 13, 38, 9, 33, 41, 23, 42, 39, 28, 17, 15, 19, 44, 46, 11, 30, 21, 32, 29, 1, 40, 22, 14, 45, 20, 16, 4, 26, 34, 49, 5, 8, 37, 47, 43, 0, 2, 27, 48, 3, 24, 25, 31, 18, 12, 35, 6, 36, 7), 1154)
41: ((10, 13, 38, 9, 33, 41, 23, 42, 39, 28, 17, 15, 19, 44, 46, 11, 30, 21, 32, 29, 1, 40, 22, 14, 45, 20, 16, 4, 26, 34, 49, 5, 8, 37, 47, 43, 0, 2, 27, 48, 3, 24, 25, 31, 18, 12, 35, 6, 36, 7), 1154)
42: ((10, 13, 38, 9, 33, 41, 23, 42, 39, 28, 17, 15, 19, 44, 46, 11, 30, 21, 32, 29, 1, 40, 22, 14, 45, 20, 16, 4, 26, 34, 49, 5, 8, 37, 47, 43, 0, 2, 27, 48, 3, 24, 25, 31, 18, 12, 35, 6, 36, 7), 1154)
43: ((10, 13, 38, 9, 33, 41, 23, 42, 39, 28, 17, 15, 19, 44, 46, 11, 30, 21, 32, 29, 1, 40, 22, 14, 45, 20, 16, 4, 26, 34, 49, 5, 8, 37, 47, 43, 0, 2, 27, 48, 3, 24, 25, 31, 18, 12, 35, 6, 36, 7), 1154)
44: ((10, 13, 38, 9, 33, 41, 23, 42, 39, 28, 17, 15, 19, 44, 46, 11, 30, 21, 32, 29, 1, 40, 22, 14, 45, 20, 16, 4, 26, 34, 49, 5, 8, 37, 47, 43, 0, 2, 27, 48, 3, 24, 25, 31, 18, 12, 35, 6, 36, 7), 1154)
45: ((10, 13, 38, 9, 33, 41, 23, 42, 39, 28, 17, 15, 19, 44, 46, 11, 30, 21, 32, 29, 1, 40, 22, 14, 45, 20, 16, 4, 26, 34, 49, 5, 8, 37, 47, 43, 0, 2, 27, 48, 3, 24, 25, 31, 18, 12, 35, 6, 36, 7), 1154)
46: ((10, 13, 38, 9, 33, 41, 23, 42, 39, 28, 17, 15, 19, 44, 46, 11, 30, 21, 32, 29, 1, 40, 22, 14, 45, 20, 16, 4, 26, 34, 49, 5, 8, 37, 47, 43, 0, 2, 27, 48, 3, 24, 25, 31, 18, 12, 35, 6, 36, 7), 1154)
47: ((10, 13, 38, 9, 33, 41, 23, 42, 39, 28, 17, 15, 19, 44, 46, 11, 30, 21, 32, 29, 1, 40, 22, 14, 45, 20, 16, 4, 26, 34, 49, 5, 8, 37, 47, 43, 0, 2, 27, 48, 3, 24, 25, 31, 18, 12, 35, 6, 36, 7), 1154)
48: ((10, 13, 38, 9, 33, 41, 23, 42, 39, 28, 17, 15, 19, 44, 46, 11, 30, 21, 32, 29, 1, 40, 22, 14, 45, 20, 16, 4, 26, 34, 49, 5, 8, 37, 47, 43, 0, 2, 27, 48, 3, 24, 25, 31, 18, 12, 35, 6, 36, 7), 1154)
49: ((42, 9, 33, 38, 36, 13, 15, 10, 39, 7, 19, 17, 28, 46, 11, 30, 21, 32, 29, 1, 40, 22, 14, 45, 20, 16, 4, 26, 34, 6, 49, 5, 8, 37, 47, 43, 0, 2, 27, 48, 3, 24, 25, 31, 41, 35, 12, 18, 23, 44), 1142)
50: ((42, 9, 33, 38, 36, 13, 15, 10, 39, 7, 19, 17, 28, 46, 11, 30, 21, 32, 29, 1, 40, 22, 14, 45, 20, 16, 4, 26, 34, 6, 49, 5, 8, 37, 47, 43, 0, 2, 27, 48, 3, 24, 25, 31, 41, 35, 12, 18, 23, 44), 1142)
51: ((42, 9, 33, 38, 36, 13, 15, 10, 39, 7, 19, 17, 28, 46, 11, 30, 21, 32, 29, 1, 40, 22, 14, 45, 20, 16, 4, 26, 34, 6, 49, 5, 8, 37, 47, 43, 0, 2, 27, 48, 3, 24, 25, 31, 41, 35, 12, 18, 23, 44), 1142)
52: ((42, 9, 33, 38, 36, 13, 15, 10, 39, 7, 19, 17, 28, 46, 11, 30, 21, 32, 29, 1, 40, 22, 14, 45, 20, 16, 4, 26, 34, 6, 49, 5, 8, 37, 47, 43, 0, 2, 27, 48, 3, 24, 25, 31, 41, 35, 12, 18, 23, 44), 1142)
53: ((42, 9, 33, 38, 36, 13, 15, 10, 39, 7, 19, 17, 28, 46, 11, 30, 21, 32, 29, 1, 40, 22, 14, 45, 20, 16, 4, 26, 34, 6, 49, 5, 8, 37, 47, 43, 0, 2, 27, 48, 3, 24, 25, 31, 41, 35, 12, 18, 23, 44), 1142)
54: ((42, 9, 33, 38, 36, 13, 15, 10, 39, 7, 19, 17, 28, 46, 11, 30, 21, 32, 29, 1, 40, 22, 14, 45, 20, 16, 4, 26, 34, 6, 49, 5, 8, 37, 47, 43, 0, 2, 27, 48, 3, 24, 25, 31, 41, 35, 12, 18, 23, 44), 1142)
55: ((42, 9, 33, 38, 36, 13, 15, 10, 39, 7, 19, 17, 28, 46, 11, 30, 21, 32, 29, 1, 40, 22, 14, 45, 20, 16, 4, 26, 34, 6, 49, 5, 8, 37, 47, 43, 0, 2, 27, 48, 3, 24, 25, 31, 41, 35, 12, 18, 23, 44), 1142)
56: ((42, 9, 33, 38, 36, 13, 15, 10, 39, 7, 19, 17, 28, 46, 11, 30, 21, 32, 29, 1, 40, 22, 14, 45, 20, 16, 4, 26, 34, 6, 49, 5, 8, 37, 47, 43, 0, 2, 27, 48, 3, 24, 25, 31, 41, 35, 12, 18, 23, 44), 1142)
57: ((42, 9, 33, 38, 36, 13, 15, 10, 39, 7, 19, 17, 28, 46, 11, 30, 21, 32, 29, 1, 40, 22, 14, 45, 20, 16, 4, 26, 34, 6, 49, 5, 8, 37, 47, 43, 0, 2, 27, 48, 3, 24, 25, 31, 41, 35, 12, 18, 23, 44), 1142)
58: ((42, 9, 33, 38, 36, 13, 15, 10, 39, 7, 19, 17, 28, 46, 11, 30, 21, 32, 29, 1, 40, 22, 14, 45, 20, 16, 4, 26, 34, 6, 49, 5, 8, 37, 47, 43, 0, 2, 27, 48, 3, 24, 25, 31, 41, 35, 12, 18, 23, 44), 1142)
59: ((42, 9, 33, 38, 36, 13, 15, 10, 39, 7, 19, 17, 28, 46, 11, 30, 21, 32, 29, 1, 40, 22, 14, 45, 20, 16, 4, 26, 34, 6, 49, 5, 8, 37, 47, 43, 0, 2, 27, 48, 3, 24, 25, 31, 41, 35, 12, 18, 23, 44), 1142)
60: ((33, 38, 36, 13, 10, 32, 3, 19, 17, 28, 46, 11, 30, 29, 40, 22, 45, 20, 16, 4, 49, 8, 39, 35, 44, 43, 27, 24, 7, 2, 26, 5, 21, 0, 31, 12, 42, 1, 15, 41, 37, 23, 9, 47, 48, 25, 6, 14, 18, 34), 1130)
61: ((33, 38, 36, 13, 10, 32, 3, 19, 17, 28, 46, 11, 30, 29, 40, 22, 45, 20, 16, 4, 49, 8, 39, 35, 44, 43, 27, 24, 7, 2, 26, 5, 21, 0, 31, 12, 42, 1, 15, 41, 37, 23, 9, 47, 48, 25, 6, 14, 18, 34), 1130)
62: ((33, 38, 36, 13, 10, 32, 3, 19, 17, 28, 46, 11, 30, 29, 40, 22, 45, 20, 16, 4, 49, 8, 39, 35, 44, 43, 27, 24, 7, 2, 26, 5, 21, 0, 31, 12, 42, 1, 15, 41, 37, 23, 9, 47, 48, 25, 6, 14, 18, 34), 1130)
63: ((33, 38, 36, 13, 10, 32, 3, 19, 17, 28, 46, 11, 30, 29, 40, 22, 45, 20, 16, 4, 49, 8, 39, 35, 44, 43, 27, 24, 7, 2, 26, 5, 21, 0, 31, 12, 42, 1, 15, 41, 37, 23, 9, 47, 48, 25, 6, 14, 18, 34), 1130)
64: ((33, 38, 36, 13, 10, 32, 3, 19, 17, 28, 46, 11, 30, 29, 40, 22, 45, 20, 16, 4, 49, 8, 39, 35, 44, 43, 27, 24, 7, 2, 26, 5, 21, 0, 31, 12, 42, 1, 15, 41, 37, 23, 9, 47, 48, 25, 6, 14, 18, 34), 1130)
65: ((33, 38, 36, 13, 10, 32, 3, 19, 17, 28, 46, 11, 30, 29, 40, 22, 45, 20, 16, 4, 49, 8, 39, 35, 44, 43, 27, 24, 7, 2, 26, 5, 21, 0, 31, 12, 42, 1, 15, 41, 37, 23, 9, 47, 48, 25, 6, 14, 18, 34), 1130)
66: ((33, 38, 36, 13, 10, 32, 3, 19, 17, 28, 46, 11, 30, 29, 40, 22, 45, 20, 16, 4, 49, 8, 39, 35, 44, 43, 27, 24, 7, 2, 26, 5, 21, 0, 31, 12, 42, 1, 15, 41, 37, 23, 9, 47, 48, 25, 6, 14, 18, 34), 1130)
67: ((33, 38, 36, 13, 10, 32, 3, 19, 17, 28, 46, 11, 30, 29, 40, 22, 45, 20, 16, 4, 49, 8, 39, 35, 43, 27, 24, 7, 2, 26, 5, 21, 0, 31, 12, 42, 1, 15, 41, 37, 23, 47, 44, 9, 48, 25, 6, 14, 18, 34), 1126)
68: ((33, 38, 36, 13, 10, 32, 3, 19, 17, 28, 46, 11, 30, 29, 40, 22, 45, 20, 16, 4, 49, 8, 39, 35, 43, 27, 24, 7, 2, 26, 5, 21, 0, 31, 12, 42, 1, 15, 41, 37, 23, 47, 44, 9, 48, 25, 6, 14, 18, 34), 1126)
69: ((33, 38, 36, 13, 10, 32, 3, 19, 17, 28, 46, 11, 30, 29, 40, 22, 45, 20, 16, 4, 49, 8, 39, 35, 43, 27, 24, 7, 2, 26, 5, 21, 0, 31, 12, 42, 1, 15, 41, 37, 23, 47, 44, 9, 48, 25, 6, 14, 18, 34), 1126)
70: ((33, 38, 36, 13, 10, 32, 3, 19, 17, 28, 46, 11, 30, 29, 40, 22, 45, 20, 16, 4, 49, 8, 39, 35, 43, 27, 24, 7, 2, 26, 5, 21, 0, 31, 12, 42, 1, 15, 41, 37, 23, 47, 44, 9, 48, 25, 6, 14, 18, 34), 1126)
71: ((33, 38, 36, 13, 10, 32, 3, 19, 17, 28, 46, 11, 30, 29, 40, 22, 45, 20, 16, 4, 49, 8, 39, 35, 43, 27, 24, 7, 2, 26, 5, 21, 0, 31, 12, 42, 1, 15, 41, 37, 23, 47, 44, 9, 48, 25, 6, 14, 18, 34), 1126)
72: ((47, 34, 33, 38, 36, 13, 10, 19, 17, 28, 46, 11, 30, 32, 29, 40, 22, 45, 20, 16, 4, 49, 8, 39, 35, 44, 43, 27, 24, 7, 2, 26, 14, 0, 31, 9, 48, 18, 25, 3, 1, 41, 15, 12, 42, 6, 37, 23, 21, 5), 1115)
73: ((47, 34, 33, 38, 36, 13, 10, 19, 17, 28, 46, 11, 30, 32, 29, 40, 22, 45, 20, 16, 4, 49, 8, 39, 35, 44, 43, 27, 24, 7, 2, 26, 14, 0, 31, 9, 48, 18, 25, 3, 1, 41, 15, 12, 42, 6, 37, 23, 21, 5), 1115)
74: ((47, 34, 33, 38, 36, 13, 10, 19, 17, 28, 46, 11, 30, 32, 29, 40, 22, 45, 20, 16, 4, 49, 8, 39, 35, 44, 43, 27, 24, 7, 2, 26, 14, 0, 31, 9, 48, 18, 25, 3, 1, 41, 15, 12, 42, 6, 37, 23, 21, 5), 1115)
75: ((47, 34, 33, 38, 36, 13, 10, 19, 17, 28, 46, 11, 30, 32, 29, 40, 22, 45, 20, 16, 4, 49, 8, 39, 35, 44, 43, 27, 24, 7, 2, 26, 14, 0, 31, 9, 48, 18, 25, 3, 1, 41, 15, 12, 42, 6, 37, 23, 21, 5), 1115)
76: ((47, 34, 33, 38, 36, 13, 10, 19, 17, 28, 46, 11, 30, 32, 29, 40, 22, 45, 20, 16, 4, 49, 8, 39, 35, 44, 43, 27, 24, 7, 2, 26, 14, 0, 31, 9, 48, 18, 25, 3, 1, 41, 15, 12, 42, 6, 37, 23, 21, 5), 1115)
77: ((47, 34, 33, 38, 36, 13, 10, 19, 17, 28, 46, 11, 30, 32, 29, 40, 22, 45, 20, 16, 4, 49, 8, 39, 35, 44, 43, 27, 24, 7, 2, 26, 14, 0, 31, 9, 48, 18, 25, 3, 1, 41, 15, 12, 42, 6, 37, 23, 21, 5), 1115)
78: ((47, 34, 33, 38, 36, 13, 10, 19, 17, 28, 46, 11, 30, 32, 29, 40, 22, 45, 20, 16, 4, 49, 8, 39, 35, 44, 43, 27, 24, 7, 2, 26, 14, 0, 31, 9, 48, 18, 25, 3, 1, 41, 15, 12, 42, 6, 37, 23, 21, 5), 1115)
79: ((47, 34, 33, 38, 36, 13, 10, 19, 17, 28, 46, 11, 30, 32, 29, 40, 22, 45, 20, 16, 4, 49, 8, 39, 35, 44, 43, 27, 24, 7, 2, 26, 14, 0, 31, 9, 48, 18, 25, 3, 1, 41, 15, 12, 42, 6, 37, 23, 21, 5), 1115)
80: ((47, 34, 33, 38, 36, 13, 10, 19, 17, 28, 46, 11, 30, 32, 29, 40, 22, 45, 20, 16, 4, 49, 8, 39, 35, 44, 43, 27, 24, 7, 2, 26, 14, 0, 31, 9, 48, 18, 25, 3, 1, 41, 15, 12, 42, 6, 37, 23, 21, 5), 1115)
81: ((47, 34, 33, 38, 36, 13, 10, 19, 17, 28, 46, 11, 30, 32, 29, 40, 22, 45, 20, 16, 4, 49, 8, 39, 35, 44, 43, 27, 24, 7, 2, 26, 14, 0, 31, 9, 48, 18, 25, 3, 1, 41, 15, 12, 42, 6, 37, 23, 21, 5), 1115)
82: ((47, 34, 33, 38, 36, 13, 10, 19, 17, 28, 46, 11, 30, 32, 29, 40, 22, 45, 20, 16, 4, 49, 8, 39, 35, 44, 43, 27, 24, 7, 2, 26, 14, 0, 31, 9, 48, 18, 25, 3, 1, 41, 15, 12, 42, 6, 37, 23, 21, 5), 1115)
83: ((47, 34, 33, 38, 36, 13, 10, 19, 17, 28, 46, 11, 30, 32, 29, 40, 22, 45, 20, 16, 4, 49, 8, 39, 35, 44, 43, 27, 24, 7, 2, 26, 14, 0, 31, 9, 48, 18, 25, 3, 1, 41, 15, 12, 42, 6, 37, 23, 21, 5), 1115)
84: ((47, 34, 33, 38, 36, 13, 10, 19, 17, 28, 46, 11, 30, 32, 29, 40, 22, 45, 20, 16, 4, 49, 8, 39, 35, 44, 43, 27, 24, 7, 2, 26, 14, 0, 31, 9, 48, 18, 25, 3, 1, 41, 15, 12, 42, 6, 37, 23, 21, 5), 1115)
85: ((47, 34, 33, 38, 36, 13, 10, 19, 17, 28, 46, 11, 30, 32, 29, 40, 22, 45, 20, 16, 4, 49, 8, 39, 35, 44, 43, 27, 24, 7, 2, 26, 14, 0, 31, 9, 48, 18, 25, 3, 1, 41, 15, 12, 42, 6, 37, 23, 21, 5), 1115)
86: ((47, 34, 33, 38, 36, 13, 10, 19, 17, 28, 46, 11, 30, 32, 29, 40, 22, 45, 20, 16, 4, 49, 8, 39, 35, 44, 43, 27, 24, 7, 2, 26, 14, 0, 31, 9, 48, 18, 25, 3, 1, 41, 15, 12, 42, 6, 37, 23, 21, 5), 1115)
87: ((33, 38, 36, 13, 10, 32, 3, 19, 17, 28, 46, 11, 30, 29, 40, 22, 45, 20, 16, 4, 49, 8, 39, 35, 43, 27, 24, 7, 2, 26, 5, 21, 0, 31, 12, 42, 1, 15, 41, 37, 23, 47, 44, 9, 48, 25, 6, 14, 18, 34), 1126)
88: ((33, 38, 36, 13, 10, 32, 3, 19, 17, 28, 46, 11, 30, 29, 40, 22, 45, 20, 16, 4, 49, 8, 39, 35, 43, 27, 24, 7, 2, 26, 5, 21, 0, 31, 12, 42, 1, 15, 41, 37, 23, 47, 44, 9, 48, 25, 6, 14, 18, 34), 1126)
89: ((33, 38, 36, 13, 10, 32, 3, 19, 17, 28, 46, 11, 30, 29, 40, 22, 45, 20, 16, 4, 49, 8, 39, 35, 43, 27, 24, 7, 2, 26, 5, 21, 0, 31, 12, 42, 1, 15, 41, 37, 23, 47, 44, 9, 48, 25, 6, 14, 18, 34), 1126)
90: ((33, 38, 36, 13, 10, 32, 3, 19, 17, 28, 46, 11, 30, 29, 40, 22, 45, 20, 16, 4, 49, 8, 39, 35, 43, 27, 24, 7, 2, 26, 5, 21, 0, 31, 12, 42, 1, 15, 41, 37, 23, 47, 44, 9, 48, 25, 6, 14, 18, 34), 1126)
91: ((33, 38, 36, 13, 10, 32, 3, 19, 17, 28, 46, 11, 30, 29, 40, 22, 45, 20, 16, 4, 49, 8, 39, 35, 43, 27, 24, 7, 2, 26, 5, 21, 0, 31, 12, 42, 1, 15, 41, 37, 23, 47, 44, 9, 48, 25, 6, 14, 18, 34), 1126)
92: ((33, 38, 36, 13, 10, 32, 3, 19, 17, 28, 46, 11, 30, 29, 40, 22, 45, 20, 16, 4, 49, 8, 39, 35, 43, 27, 24, 7, 2, 26, 5, 21, 0, 31, 12, 42, 1, 15, 41, 37, 23, 47, 44, 9, 48, 25, 6, 14, 18, 34), 1126)
93: ((33, 38, 36, 13, 10, 32, 3, 19, 17, 28, 46, 11, 30, 29, 40, 22, 45, 20, 16, 4, 49, 8, 39, 35, 43, 27, 24, 7, 2, 26, 5, 21, 0, 31, 12, 42, 1, 15, 41, 37, 23, 47, 44, 9, 48, 25, 6, 14, 18, 34), 1126)
94: ((33, 38, 32, 3, 17, 49, 30, 28, 46, 12, 11, 40, 10, 29, 21, 7, 14, 45, 20, 16, 4, 26, 34, 5, 8, 37, 6, 2, 13, 27, 31, 9, 0, 22, 48, 18, 25, 41, 35, 24, 42, 23, 36, 47, 43, 39, 44, 15, 19, 1), 1125)
95: ((33, 38, 32, 3, 17, 49, 30, 28, 46, 12, 11, 40, 10, 29, 21, 7, 14, 45, 20, 16, 4, 26, 34, 5, 8, 37, 6, 2, 13, 27, 31, 9, 0, 22, 48, 18, 25, 41, 35, 24, 42, 23, 36, 47, 43, 39, 44, 15, 19, 1), 1125)
Best: ((47, 34, 33, 38, 36, 13, 10, 19, 17, 28, 46, 11, 30, 32, 29, 40, 22, 45, 20, 16, 4, 49, 8, 39, 35, 44, 43, 27, 24, 7, 2, 26, 14, 0, 31, 9, 48, 18, 25, 3, 1, 41, 15, 12, 42, 6, 37, 23, 21, 5), 1115)
Runtime: 442.47658989999996 s